run_unittests/benchmarks_unittests/django_sat/08_djangodjango.contrib.auth.hashersBCryptSHA256PasswordHasher.must_updateformula22_sat.smt2
(set-logic ALL)
(declare-const encoded String)
(assert (not (< (str.len encoded) 0)))
(assert (not (= (+ 0 (str.indexof encoded "$" 0)) (- 1))))
(assert (not (< (+ 0 (str.indexof encoded "$" 0)) 0)))
(assert (not (< (+ (+ 0 (str.indexof encoded "$" 0)) 1) 0)))
(assert (not (< (str.len encoded) 0)))
(assert (not (< (str.len (str.substr encoded (+ (+ 0 (str.indexof encoded "$" 0)) 1) (- (str.len encoded) (+ (+ 0 (str.indexof encoded "$" 0)) 1)))) 0)))
(assert (not (= (+ 0 (str.indexof (str.substr encoded (+ (+ 0 (str.indexof encoded "$" 0)) 1) (- (str.len encoded) (+ (+ 0 (str.indexof encoded "$" 0)) 1))) "$" 0)) (- 1))))
(assert (not (< (+ 0 (str.indexof (str.substr encoded (+ (+ 0 (str.indexof encoded "$" 0)) 1) (- (str.len encoded) (+ (+ 0 (str.indexof encoded "$" 0)) 1))) "$" 0)) 0)))
(assert (not (< (+ (+ 0 (str.indexof (str.substr encoded (+ (+ 0 (str.indexof encoded "$" 0)) 1) (- (str.len encoded) (+ (+ 0 (str.indexof encoded "$" 0)) 1))) "$" 0)) 1) 0)))
(assert (not (< (str.len (str.substr encoded (+ (+ 0 (str.indexof encoded "$" 0)) 1) (- (str.len encoded) (+ (+ 0 (str.indexof encoded "$" 0)) 1)))) 0)))
(assert (not (< (str.len (str.substr (str.substr encoded (+ (+ 0 (str.indexof encoded "$" 0)) 1) (- (str.len encoded) (+ (+ 0 (str.indexof encoded "$" 0)) 1))) (+ (+ 0 (str.indexof (str.substr encoded (+ (+ 0 (str.indexof encoded "$" 0)) 1) (- (str.len encoded) (+ (+ 0 (str.indexof encoded "$" 0)) 1))) "$" 0)) 1) (- (str.len (str.substr encoded (+ (+ 0 (str.indexof encoded "$" 0)) 1) (- (str.len encoded) (+ (+ 0 (str.indexof encoded "$" 0)) 1)))) (+ (+ 0 (str.indexof (str.substr encoded (+ (+ 0 (str.indexof encoded "$" 0)) 1) (- (str.len encoded) (+ (+ 0 (str.indexof encoded "$" 0)) 1))) "$" 0)) 1)))) 0)))
(assert (not (= (+ 0 (str.indexof (str.substr (str.substr encoded (+ (+ 0 (str.indexof encoded "$" 0)) 1) (- (str.len encoded) (+ (+ 0 (str.indexof encoded "$" 0)) 1))) (+ (+ 0 (str.indexof (str.substr encoded (+ (+ 0 (str.indexof encoded "$" 0)) 1) (- (str.len encoded) (+ (+ 0 (str.indexof encoded "$" 0)) 1))) "$" 0)) 1) (- (str.len (str.substr encoded (+ (+ 0 (str.indexof encoded "$" 0)) 1) (- (str.len encoded) (+ (+ 0 (str.indexof encoded "$" 0)) 1)))) (+ (+ 0 (str.indexof (str.substr encoded (+ (+ 0 (str.indexof encoded "$" 0)) 1) (- (str.len encoded) (+ (+ 0 (str.indexof encoded "$" 0)) 1))) "$" 0)) 1))) "$" 0)) (- 1))))
(assert (not (< (+ 0 (str.indexof (str.substr (str.substr encoded (+ (+ 0 (str.indexof encoded "$" 0)) 1) (- (str.len encoded) (+ (+ 0 (str.indexof encoded "$" 0)) 1))) (+ (+ 0 (str.indexof (str.substr encoded (+ (+ 0 (str.indexof encoded "$" 0)) 1) (- (str.len encoded) (+ (+ 0 (str.indexof encoded "$" 0)) 1))) "$" 0)) 1) (- (str.len (str.substr encoded (+ (+ 0 (str.indexof encoded "$" 0)) 1) (- (str.len encoded) (+ (+ 0 (str.indexof encoded "$" 0)) 1)))) (+ (+ 0 (str.indexof (str.substr encoded (+ (+ 0 (str.indexof encoded "$" 0)) 1) (- (str.len encoded) (+ (+ 0 (str.indexof encoded "$" 0)) 1))) "$" 0)) 1))) "$" 0)) 0)))
(assert (not (< (+ (+ 0 (str.indexof (str.substr (str.substr encoded (+ (+ 0 (str.indexof encoded "$" 0)) 1) (- (str.len encoded) (+ (+ 0 (str.indexof encoded "$" 0)) 1))) (+ (+ 0 (str.indexof (str.substr encoded (+ (+ 0 (str.indexof encoded "$" 0)) 1) (- (str.len encoded) (+ (+ 0 (str.indexof encoded "$" 0)) 1))) "$" 0)) 1) (- (str.len (str.substr encoded (+ (+ 0 (str.indexof encoded "$" 0)) 1) (- (str.len encoded) (+ (+ 0 (str.indexof encoded "$" 0)) 1)))) (+ (+ 0 (str.indexof (str.substr encoded (+ (+ 0 (str.indexof encoded "$" 0)) 1) (- (str.len encoded) (+ (+ 0 (str.indexof encoded "$" 0)) 1))) "$" 0)) 1))) "$" 0)) 1) 0)))
(assert (not (< (str.len (str.substr (str.substr encoded (+ (+ 0 (str.indexof encoded "$" 0)) 1) (- (str.len encoded) (+ (+ 0 (str.indexof encoded "$" 0)) 1))) (+ (+ 0 (str.indexof (str.substr encoded (+ (+ 0 (str.indexof encoded "$" 0)) 1) (- (str.len encoded) (+ (+ 0 (str.indexof encoded "$" 0)) 1))) "$" 0)) 1) (- (str.len (str.substr encoded (+ (+ 0 (str.indexof encoded "$" 0)) 1) (- (str.len encoded) (+ (+ 0 (str.indexof encoded "$" 0)) 1)))) (+ (+ 0 (str.indexof (str.substr encoded (+ (+ 0 (str.indexof encoded "$" 0)) 1) (- (str.len encoded) (+ (+ 0 (str.indexof encoded "$" 0)) 1))) "$" 0)) 1)))) 0)))
(assert (not (< (str.len (str.substr (str.substr (str.substr encoded (+ (+ 0 (str.indexof encoded "$" 0)) 1) (- (str.len encoded) (+ (+ 0 (str.indexof encoded "$" 0)) 1))) (+ (+ 0 (str.indexof (str.substr encoded (+ (+ 0 (str.indexof encoded "$" 0)) 1) (- (str.len encoded) (+ (+ 0 (str.indexof encoded "$" 0)) 1))) "$" 0)) 1) (- (str.len (str.substr encoded (+ (+ 0 (str.indexof encoded "$" 0)) 1) (- (str.len encoded) (+ (+ 0 (str.indexof encoded "$" 0)) 1)))) (+ (+ 0 (str.indexof (str.substr encoded (+ (+ 0 (str.indexof encoded "$" 0)) 1) (- (str.len encoded) (+ (+ 0 (str.indexof encoded "$" 0)) 1))) "$" 0)) 1))) (+ (+ 0 (str.indexof (str.substr (str.substr encoded (+ (+ 0 (str.indexof encoded "$" 0)) 1) (- (str.len encoded) (+ (+ 0 (str.indexof encoded "$" 0)) 1))) (+ (+ 0 (str.indexof (str.substr encoded (+ (+ 0 (str.indexof encoded "$" 0)) 1) (- (str.len encoded) (+ (+ 0 (str.indexof encoded "$" 0)) 1))) "$" 0)) 1) (- (str.len (str.substr encoded (+ (+ 0 (str.indexof encoded "$" 0)) 1) (- (str.len encoded) (+ (+ 0 (str.indexof encoded "$" 0)) 1)))) (+ (+ 0 (str.indexof (str.substr encoded (+ (+ 0 (str.indexof encoded "$" 0)) 1) (- (str.len encoded) (+ (+ 0 (str.indexof encoded "$" 0)) 1))) "$" 0)) 1))) "$" 0)) 1) (- (str.len (str.substr (str.substr encoded (+ (+ 0 (str.indexof encoded "$" 0)) 1) (- (str.len encoded) (+ (+ 0 (str.indexof encoded "$" 0)) 1))) (+ (+ 0 (str.indexof (str.substr encoded (+ (+ 0 (str.indexof encoded "$" 0)) 1) (- (str.len encoded) (+ (+ 0 (str.indexof encoded "$" 0)) 1))) "$" 0)) 1) (- (str.len (str.substr encoded (+ (+ 0 (str.indexof encoded "$" 0)) 1) (- (str.len encoded) (+ (+ 0 (str.indexof encoded "$" 0)) 1)))) (+ (+ 0 (str.indexof (str.substr encoded (+ (+ 0 (str.indexof encoded "$" 0)) 1) (- (str.len encoded) (+ (+ 0 (str.indexof encoded "$" 0)) 1))) "$" 0)) 1)))) (+ (+ 0 (str.indexof (str.substr (str.substr encoded (+ (+ 0 (str.indexof encoded "$" 0)) 1) (- (str.len encoded) (+ (+ 0 (str.indexof encoded "$" 0)) 1))) (+ (+ 0 (str.indexof (str.substr encoded (+ (+ 0 (str.indexof encoded "$" 0)) 1) (- (str.len encoded) (+ (+ 0 (str.indexof encoded "$" 0)) 1))) "$" 0)) 1) (- (str.len (str.substr encoded (+ (+ 0 (str.indexof encoded "$" 0)) 1) (- (str.len encoded) (+ (+ 0 (str.indexof encoded "$" 0)) 1)))) (+ (+ 0 (str.indexof (str.substr encoded (+ (+ 0 (str.indexof encoded "$" 0)) 1) (- (str.len encoded) (+ (+ 0 (str.indexof encoded "$" 0)) 1))) "$" 0)) 1))) "$" 0)) 1)))) 0)))
(assert (not (= (+ 0 (str.indexof (str.substr (str.substr (str.substr encoded (+ (+ 0 (str.indexof encoded "$" 0)) 1) (- (str.len encoded) (+ (+ 0 (str.indexof encoded "$" 0)) 1))) (+ (+ 0 (str.indexof (str.substr encoded (+ (+ 0 (str.indexof encoded "$" 0)) 1) (- (str.len encoded) (+ (+ 0 (str.indexof encoded "$" 0)) 1))) "$" 0)) 1) (- (str.len (str.substr encoded (+ (+ 0 (str.indexof encoded "$" 0)) 1) (- (str.len encoded) (+ (+ 0 (str.indexof encoded "$" 0)) 1)))) (+ (+ 0 (str.indexof (str.substr encoded (+ (+ 0 (str.indexof encoded "$" 0)) 1) (- (str.len encoded) (+ (+ 0 (str.indexof encoded "$" 0)) 1))) "$" 0)) 1))) (+ (+ 0 (str.indexof (str.substr (str.substr encoded (+ (+ 0 (str.indexof encoded "$" 0)) 1) (- (str.len encoded) (+ (+ 0 (str.indexof encoded "$" 0)) 1))) (+ (+ 0 (str.indexof (str.substr encoded (+ (+ 0 (str.indexof encoded "$" 0)) 1) (- (str.len encoded) (+ (+ 0 (str.indexof encoded "$" 0)) 1))) "$" 0)) 1) (- (str.len (str.substr encoded (+ (+ 0 (str.indexof encoded "$" 0)) 1) (- (str.len encoded) (+ (+ 0 (str.indexof encoded "$" 0)) 1)))) (+ (+ 0 (str.indexof (str.substr encoded (+ (+ 0 (str.indexof encoded "$" 0)) 1) (- (str.len encoded) (+ (+ 0 (str.indexof encoded "$" 0)) 1))) "$" 0)) 1))) "$" 0)) 1) (- (str.len (str.substr (str.substr encoded (+ (+ 0 (str.indexof encoded "$" 0)) 1) (- (str.len encoded) (+ (+ 0 (str.indexof encoded "$" 0)) 1))) (+ (+ 0 (str.indexof (str.substr encoded (+ (+ 0 (str.indexof encoded "$" 0)) 1) (- (str.len encoded) (+ (+ 0 (str.indexof encoded "$" 0)) 1))) "$" 0)) 1) (- (str.len (str.substr encoded (+ (+ 0 (str.indexof encoded "$" 0)) 1) (- (str.len encoded) (+ (+ 0 (str.indexof encoded "$" 0)) 1)))) (+ (+ 0 (str.indexof (str.substr encoded (+ (+ 0 (str.indexof encoded "$" 0)) 1) (- (str.len encoded) (+ (+ 0 (str.indexof encoded "$" 0)) 1))) "$" 0)) 1)))) (+ (+ 0 (str.indexof (str.substr (str.substr encoded (+ (+ 0 (str.indexof encoded "$" 0)) 1) (- (str.len encoded) (+ (+ 0 (str.indexof encoded "$" 0)) 1))) (+ (+ 0 (str.indexof (str.substr encoded (+ (+ 0 (str.indexof encoded "$" 0)) 1) (- (str.len encoded) (+ (+ 0 (str.indexof encoded "$" 0)) 1))) "$" 0)) 1) (- (str.len (str.substr encoded (+ (+ 0 (str.indexof encoded "$" 0)) 1) (- (str.len encoded) (+ (+ 0 (str.indexof encoded "$" 0)) 1)))) (+ (+ 0 (str.indexof (str.substr encoded (+ (+ 0 (str.indexof encoded "$" 0)) 1) (- (str.len encoded) (+ (+ 0 (str.indexof encoded "$" 0)) 1))) "$" 0)) 1))) "$" 0)) 1))) "$" 0)) (- 1))))
(assert (not (< (+ 0 (str.indexof (str.substr (str.substr (str.substr encoded (+ (+ 0 (str.indexof encoded "$" 0)) 1) (- (str.len encoded) (+ (+ 0 (str.indexof encoded "$" 0)) 1))) (+ (+ 0 (str.indexof (str.substr encoded (+ (+ 0 (str.indexof encoded "$" 0)) 1) (- (str.len encoded) (+ (+ 0 (str.indexof encoded "$" 0)) 1))) "$" 0)) 1) (- (str.len (str.substr encoded (+ (+ 0 (str.indexof encoded "$" 0)) 1) (- (str.len encoded) (+ (+ 0 (str.indexof encoded "$" 0)) 1)))) (+ (+ 0 (str.indexof (str.substr encoded (+ (+ 0 (str.indexof encoded "$" 0)) 1) (- (str.len encoded) (+ (+ 0 (str.indexof encoded "$" 0)) 1))) "$" 0)) 1))) (+ (+ 0 (str.indexof (str.substr (str.substr encoded (+ (+ 0 (str.indexof encoded "$" 0)) 1) (- (str.len encoded) (+ (+ 0 (str.indexof encoded "$" 0)) 1))) (+ (+ 0 (str.indexof (str.substr encoded (+ (+ 0 (str.indexof encoded "$" 0)) 1) (- (str.len encoded) (+ (+ 0 (str.indexof encoded "$" 0)) 1))) "$" 0)) 1) (- (str.len (str.substr encoded (+ (+ 0 (str.indexof encoded "$" 0)) 1) (- (str.len encoded) (+ (+ 0 (str.indexof encoded "$" 0)) 1)))) (+ (+ 0 (str.indexof (str.substr encoded (+ (+ 0 (str.indexof encoded "$" 0)) 1) (- (str.len encoded) (+ (+ 0 (str.indexof encoded "$" 0)) 1))) "$" 0)) 1))) "$" 0)) 1) (- (str.len (str.substr (str.substr encoded (+ (+ 0 (str.indexof encoded "$" 0)) 1) (- (str.len encoded) (+ (+ 0 (str.indexof encoded "$" 0)) 1))) (+ (+ 0 (str.indexof (str.substr encoded (+ (+ 0 (str.indexof encoded "$" 0)) 1) (- (str.len encoded) (+ (+ 0 (str.indexof encoded "$" 0)) 1))) "$" 0)) 1) (- (str.len (str.substr encoded (+ (+ 0 (str.indexof encoded "$" 0)) 1) (- (str.len encoded) (+ (+ 0 (str.indexof encoded "$" 0)) 1)))) (+ (+ 0 (str.indexof (str.substr encoded (+ (+ 0 (str.indexof encoded "$" 0)) 1) (- (str.len encoded) (+ (+ 0 (str.indexof encoded "$" 0)) 1))) "$" 0)) 1)))) (+ (+ 0 (str.indexof (str.substr (str.substr encoded (+ (+ 0 (str.indexof encoded "$" 0)) 1) (- (str.len encoded) (+ (+ 0 (str.indexof encoded "$" 0)) 1))) (+ (+ 0 (str.indexof (str.substr encoded (+ (+ 0 (str.indexof encoded "$" 0)) 1) (- (str.len encoded) (+ (+ 0 (str.indexof encoded "$" 0)) 1))) "$" 0)) 1) (- (str.len (str.substr encoded (+ (+ 0 (str.indexof encoded "$" 0)) 1) (- (str.len encoded) (+ (+ 0 (str.indexof encoded "$" 0)) 1)))) (+ (+ 0 (str.indexof (str.substr encoded (+ (+ 0 (str.indexof encoded "$" 0)) 1) (- (str.len encoded) (+ (+ 0 (str.indexof encoded "$" 0)) 1))) "$" 0)) 1))) "$" 0)) 1))) "$" 0)) 0)))
(assert (not (< (+ (+ 0 (str.indexof (str.substr (str.substr (str.substr encoded (+ (+ 0 (str.indexof encoded "$" 0)) 1) (- (str.len encoded) (+ (+ 0 (str.indexof encoded "$" 0)) 1))) (+ (+ 0 (str.indexof (str.substr encoded (+ (+ 0 (str.indexof encoded "$" 0)) 1) (- (str.len encoded) (+ (+ 0 (str.indexof encoded "$" 0)) 1))) "$" 0)) 1) (- (str.len (str.substr encoded (+ (+ 0 (str.indexof encoded "$" 0)) 1) (- (str.len encoded) (+ (+ 0 (str.indexof encoded "$" 0)) 1)))) (+ (+ 0 (str.indexof (str.substr encoded (+ (+ 0 (str.indexof encoded "$" 0)) 1) (- (str.len encoded) (+ (+ 0 (str.indexof encoded "$" 0)) 1))) "$" 0)) 1))) (+ (+ 0 (str.indexof (str.substr (str.substr encoded (+ (+ 0 (str.indexof encoded "$" 0)) 1) (- (str.len encoded) (+ (+ 0 (str.indexof encoded "$" 0)) 1))) (+ (+ 0 (str.indexof (str.substr encoded (+ (+ 0 (str.indexof encoded "$" 0)) 1) (- (str.len encoded) (+ (+ 0 (str.indexof encoded "$" 0)) 1))) "$" 0)) 1) (- (str.len (str.substr encoded (+ (+ 0 (str.indexof encoded "$" 0)) 1) (- (str.len encoded) (+ (+ 0 (str.indexof encoded "$" 0)) 1)))) (+ (+ 0 (str.indexof (str.substr encoded (+ (+ 0 (str.indexof encoded "$" 0)) 1) (- (str.len encoded) (+ (+ 0 (str.indexof encoded "$" 0)) 1))) "$" 0)) 1))) "$" 0)) 1) (- (str.len (str.substr (str.substr encoded (+ (+ 0 (str.indexof encoded "$" 0)) 1) (- (str.len encoded) (+ (+ 0 (str.indexof encoded "$" 0)) 1))) (+ (+ 0 (str.indexof (str.substr encoded (+ (+ 0 (str.indexof encoded "$" 0)) 1) (- (str.len encoded) (+ (+ 0 (str.indexof encoded "$" 0)) 1))) "$" 0)) 1) (- (str.len (str.substr encoded (+ (+ 0 (str.indexof encoded "$" 0)) 1) (- (str.len encoded) (+ (+ 0 (str.indexof encoded "$" 0)) 1)))) (+ (+ 0 (str.indexof (str.substr encoded (+ (+ 0 (str.indexof encoded "$" 0)) 1) (- (str.len encoded) (+ (+ 0 (str.indexof encoded "$" 0)) 1))) "$" 0)) 1)))) (+ (+ 0 (str.indexof (str.substr (str.substr encoded (+ (+ 0 (str.indexof encoded "$" 0)) 1) (- (str.len encoded) (+ (+ 0 (str.indexof encoded "$" 0)) 1))) (+ (+ 0 (str.indexof (str.substr encoded (+ (+ 0 (str.indexof encoded "$" 0)) 1) (- (str.len encoded) (+ (+ 0 (str.indexof encoded "$" 0)) 1))) "$" 0)) 1) (- (str.len (str.substr encoded (+ (+ 0 (str.indexof encoded "$" 0)) 1) (- (str.len encoded) (+ (+ 0 (str.indexof encoded "$" 0)) 1)))) (+ (+ 0 (str.indexof (str.substr encoded (+ (+ 0 (str.indexof encoded "$" 0)) 1) (- (str.len encoded) (+ (+ 0 (str.indexof encoded "$" 0)) 1))) "$" 0)) 1))) "$" 0)) 1))) "$" 0)) 1) 0)))
(assert (not (< (str.len (str.substr (str.substr (str.substr encoded (+ (+ 0 (str.indexof encoded "$" 0)) 1) (- (str.len encoded) (+ (+ 0 (str.indexof encoded "$" 0)) 1))) (+ (+ 0 (str.indexof (str.substr encoded (+ (+ 0 (str.indexof encoded "$" 0)) 1) (- (str.len encoded) (+ (+ 0 (str.indexof encoded "$" 0)) 1))) "$" 0)) 1) (- (str.len (str.substr encoded (+ (+ 0 (str.indexof encoded "$" 0)) 1) (- (str.len encoded) (+ (+ 0 (str.indexof encoded "$" 0)) 1)))) (+ (+ 0 (str.indexof (str.substr encoded (+ (+ 0 (str.indexof encoded "$" 0)) 1) (- (str.len encoded) (+ (+ 0 (str.indexof encoded "$" 0)) 1))) "$" 0)) 1))) (+ (+ 0 (str.indexof (str.substr (str.substr encoded (+ (+ 0 (str.indexof encoded "$" 0)) 1) (- (str.len encoded) (+ (+ 0 (str.indexof encoded "$" 0)) 1))) (+ (+ 0 (str.indexof (str.substr encoded (+ (+ 0 (str.indexof encoded "$" 0)) 1) (- (str.len encoded) (+ (+ 0 (str.indexof encoded "$" 0)) 1))) "$" 0)) 1) (- (str.len (str.substr encoded (+ (+ 0 (str.indexof encoded "$" 0)) 1) (- (str.len encoded) (+ (+ 0 (str.indexof encoded "$" 0)) 1)))) (+ (+ 0 (str.indexof (str.substr encoded (+ (+ 0 (str.indexof encoded "$" 0)) 1) (- (str.len encoded) (+ (+ 0 (str.indexof encoded "$" 0)) 1))) "$" 0)) 1))) "$" 0)) 1) (- (str.len (str.substr (str.substr encoded (+ (+ 0 (str.indexof encoded "$" 0)) 1) (- (str.len encoded) (+ (+ 0 (str.indexof encoded "$" 0)) 1))) (+ (+ 0 (str.indexof (str.substr encoded (+ (+ 0 (str.indexof encoded "$" 0)) 1) (- (str.len encoded) (+ (+ 0 (str.indexof encoded "$" 0)) 1))) "$" 0)) 1) (- (str.len (str.substr encoded (+ (+ 0 (str.indexof encoded "$" 0)) 1) (- (str.len encoded) (+ (+ 0 (str.indexof encoded "$" 0)) 1)))) (+ (+ 0 (str.indexof (str.substr encoded (+ (+ 0 (str.indexof encoded "$" 0)) 1) (- (str.len encoded) (+ (+ 0 (str.indexof encoded "$" 0)) 1))) "$" 0)) 1)))) (+ (+ 0 (str.indexof (str.substr (str.substr encoded (+ (+ 0 (str.indexof encoded "$" 0)) 1) (- (str.len encoded) (+ (+ 0 (str.indexof encoded "$" 0)) 1))) (+ (+ 0 (str.indexof (str.substr encoded (+ (+ 0 (str.indexof encoded "$" 0)) 1) (- (str.len encoded) (+ (+ 0 (str.indexof encoded "$" 0)) 1))) "$" 0)) 1) (- (str.len (str.substr encoded (+ (+ 0 (str.indexof encoded "$" 0)) 1) (- (str.len encoded) (+ (+ 0 (str.indexof encoded "$" 0)) 1)))) (+ (+ 0 (str.indexof (str.substr encoded (+ (+ 0 (str.indexof encoded "$" 0)) 1) (- (str.len encoded) (+ (+ 0 (str.indexof encoded "$" 0)) 1))) "$" 0)) 1))) "$" 0)) 1)))) 0)))
(assert (= (str.substr encoded 0 (- (+ 0 (str.indexof encoded "$" 0)) 0)) "bcrypt_sha256"))
(check-sat)
(get-value (encoded))
